c FILE: small2.graph
c
c SOURCE: DAP2
c
p edge 10 27
e 2 7
e 2 1
e 2 5
e 2 9
e 2 0
e 2 3
e 2 4
e 7 1
e 7 6
e 7 5
e 7 9
e 7 3
e 1 6
e 1 8
e 1 0
e 6 5
e 6 8
e 6 4
e 5 8
e 5 9
e 5 4
e 8 4
e 9 0
e 9 4
e 0 3
e 0 7
e 3 4
